! kcsdi-rs S-parameters. Source calibration is unchanged.
# Hz S RI R 50
! Hz ReS11 ImS11
5.0000000000000000e3 8.3160000000000001e-1 9.7389999999999994e-3
3.2549750000000000e6 1.0460000000000000e0 -1.4169999999999999e-1
6.5049500000000000e6 9.8499999999999999e-1 -3.5460000000000003e-1
9.7549250000000000e6 8.9319999999999999e-1 -5.4520000000000002e-1
1.3004900000000000e7 7.7400000000000002e-1 -6.9799999999999995e-1
1.6254875000000000e7 6.2229999999999996e-1 -8.2799999999999996e-1
1.9504850000000000e7 4.5479999999999998e-1 -9.2879999999999996e-1
2.2754825000000000e7 2.6869999999999999e-1 -9.8280000000000001e-1
2.6004800000000000e7 8.5739999999999997e-2 -1.0009999999999999e0
2.9254775000000000e7 -1.0560000000000000e-1 -9.9029999999999996e-1
3.2504750000000000e7 -2.9420000000000002e-1 -9.2720000000000002e-1
3.5754725000000000e7 -4.5800000000000002e-1 -8.3779999999999999e-1
3.9004700000000000e7 -6.0470000000000002e-1 -7.0799999999999996e-1
4.2254675000000000e7 -7.1230000000000004e-1 -5.4679999999999995e-1
4.5504650000000000e7 -7.7139999999999997e-1 -3.5180000000000000e-1
4.8754625000000000e7 -7.3829999999999996e-1 -1.7230000000000001e-1
5.2004600000000000e7 -6.4380000000000004e-1 -9.5570000000000002e-2
5.5254575000000000e7 -6.4870000000000005e-1 -1.0360000000000000e-1
5.8504550000000000e7 -7.3999999999999999e-1 -1.8329999999999999e-2
6.1754525000000000e7 -7.6919999999999999e-1 1.3500000000000001e-1
6.5004500000000000e7 -7.4980000000000002e-1 3.0840000000000001e-1
6.8254475000000000e7 -6.7789999999999995e-1 4.6989999999999998e-1
7.1504450000000000e7 -5.6299999999999994e-1 6.0770000000000002e-1
7.4754425000000000e7 -4.2240000000000000e-1 7.1619999999999995e-1
7.8004400000000000e7 -2.4490000000000001e-1 7.7370000000000005e-1
8.1254375000000000e7 -7.2099999999999997e-2 7.9020000000000001e-1
8.4504350000000000e7 9.7220000000000001e-2 7.5319999999999998e-1
8.7754325000000000e7 2.2880000000000000e-1 6.6990000000000005e-1
9.1004300000000000e7 2.8620000000000001e-1 5.8909999999999996e-1
9.4254275000000000e7 3.3789999999999998e-1 5.6659999999999999e-1
9.7504250000000000e7 4.4540000000000002e-1 5.4339999999999999e-1
1.0075422500000000e8 5.7330000000000003e-1 4.6150000000000002e-1
1.0400420000000000e8 6.7910000000000004e-1 3.4420000000000001e-1
1.0725417500000000e8 7.5319999999999998e-1 1.8570000000000000e-1
1.1050415000000000e8 7.7339999999999998e-1 1.8880000000000001e-2
1.1375412500000000e8 7.5960000000000005e-1 -1.5590000000000001e-1
1.1700410000000000e8 6.9989999999999997e-1 -3.1240000000000001e-1
1.2025407500000000e8 6.0599999999999998e-1 -4.5250000000000001e-1
1.2350405000000000e8 4.8049999999999998e-1 -5.6200000000000006e-1
1.2675402500000000e8 3.2990000000000003e-1 -6.4059999999999995e-1
1.3000400000000000e8 1.7299999999999999e-1 -6.7149999999999999e-1
1.3325397500000000e8 1.5370000000000000e-2 -6.7410000000000003e-1
1.3650395000000000e8 -1.3100000000000001e-1 -6.2809999999999999e-1
1.3975392500000000e8 -2.6440000000000002e-1 -5.5230000000000001e-1
1.4300390000000000e8 -3.7490000000000001e-1 -4.4940000000000002e-1
1.4625387500000000e8 -4.4940000000000002e-1 -3.2829999999999998e-1
1.4950385000000000e8 -4.8649999999999999e-1 -1.8700000000000000e-1
1.5275382500000000e8 -4.9190000000000000e-1 -5.5370000000000003e-2
1.5600380000000000e8 -4.5440000000000003e-1 8.1320000000000003e-2
1.5925377500000000e8 -3.8800000000000001e-1 1.9209999999999999e-1
1.6250375000000000e8 -2.8280000000000000e-1 2.7800000000000002e-1
1.6575372500000000e8 -1.7610000000000001e-1 3.2340000000000002e-1
1.6900370000000000e8 -5.6880000000000000e-2 3.1750000000000000e-1
1.7225367500000000e8 3.8910000000000000e-2 2.7510000000000001e-1
1.7550365000000000e8 1.1760000000000000e-1 2.0119999999999999e-1
1.7875362500000000e8 1.3819999999999999e-1 1.1620000000000000e-1
1.8200360000000000e8 1.1190000000000000e-1 4.7419999999999997e-2
1.8525357500000000e8 5.5930000000000001e-2 2.0660000000000001e-2
1.8850355000000000e8 5.1510000000000002e-3 4.1950000000000001e-2
1.9175352500000000e8 -1.1570000000000000e-2 9.4780000000000003e-2
1.9500350000000000e8 1.8509999999999999e-2 1.5110000000000001e-1
1.9825347500000000e8 7.6969999999999997e-2 1.7929999999999999e-1
2.0150345000000000e8 1.5939999999999999e-1 1.7540000000000000e-1
2.0475342500000000e8 2.3890000000000000e-1 1.2600000000000000e-1
2.0800340000000000e8 2.9080000000000000e-1 5.4390000000000001e-2
2.1125337500000000e8 3.1190000000000001e-1 -3.3000000000000002e-2
2.1450335000000000e8 3.0340000000000000e-1 -1.3600000000000001e-1
2.1775332500000000e8 2.6450000000000001e-1 -2.3130000000000001e-1
2.2100330000000000e8 1.8859999999999999e-1 -3.0390000000000000e-1
2.2425327500000000e8 9.7299999999999998e-2 -3.5039999999999999e-1
2.2750325000000000e8 -2.0790000000000001e-4 -3.7459999999999999e-1
2.3075322500000000e8 -1.0990000000000000e-1 -3.6149999999999999e-1
2.3400320000000000e8 -2.0830000000000001e-1 -3.2440000000000002e-1
2.3725317500000000e8 -2.9680000000000001e-1 -2.5390000000000001e-1
2.4050315000000000e8 -3.6680000000000001e-1 -1.6250000000000001e-1
2.4375312500000000e8 -4.0160000000000001e-1 -6.1249999999999999e-2
2.4700310000000000e8 -4.1380000000000000e-1 4.9900000000000000e-2
2.5025307500000000e8 -3.9660000000000001e-1 1.5939999999999999e-1
2.5350305000000000e8 -3.4110000000000001e-1 2.5590000000000002e-1
2.5675302500000000e8 -2.6750000000000002e-1 3.4899999999999998e-1
2.6000300000000000e8 -1.8160000000000001e-1 4.0699999999999997e-1
2.6325297500000000e8 -8.4360000000000004e-2 4.5390000000000003e-1
2.6650295000000000e8 2.9739999999999999e-2 4.6800000000000003e-1
2.6975292500000000e8 1.3990000000000000e-1 4.5329999999999998e-1
2.7300290000000000e8 2.4270000000000000e-1 4.2399999999999999e-1
2.7625287500000000e8 3.3300000000000002e-1 3.7230000000000002e-1
2.7950285000000000e8 4.1549999999999998e-1 3.0430000000000001e-1
2.8275282500000000e8 4.8299999999999998e-1 2.0010000000000000e-1
2.8600280000000000e8 5.2780000000000005e-1 8.5639999999999994e-2
2.8925277500000000e8 5.3539999999999999e-1 -3.4070000000000003e-2
2.9250275000000000e8 5.2329999999999999e-1 -1.6259999999999999e-1
2.9575272500000000e8 4.7280000000000000e-1 -2.6669999999999999e-1
2.9900270000000000e8 3.9570000000000000e-1 -3.6449999999999999e-1
3.0225267500000000e8 3.0340000000000000e-1 -4.3159999999999998e-1
3.0550265000000000e8 1.9040000000000001e-1 -4.8940000000000000e-1
3.0875262500000000e8 7.6609999999999998e-2 -4.9900000000000000e-1
3.1200260000000000e8 -3.6049999999999999e-2 -4.9399999999999999e-1
3.1525257500000000e8 -1.5140000000000001e-1 -4.6610000000000001e-1
3.1850255000000000e8 -2.3580000000000001e-1 -4.1220000000000001e-1
3.2175252500000000e8 -3.0890000000000001e-1 -3.2590000000000002e-1
3.2500250000000000e8 -3.6930000000000002e-1 -2.4579999999999999e-1
3.2825247500000000e8 -3.9729999999999999e-1 -1.4610000000000001e-1
3.3150245000000000e8 -4.1180000000000000e-1 -5.0439999999999999e-2
3.3475242500000000e8 -3.9620000000000000e-1 3.6450000000000003e-2
3.3800240000000000e8 -3.6090000000000000e-1 1.2750000000000000e-1
3.4125237500000000e8 -3.1450000000000000e-1 1.9320000000000001e-1
3.4450235000000000e8 -2.6100000000000001e-1 2.6019999999999999e-1
3.4775232500000000e8 -1.8640000000000001e-1 3.0599999999999999e-1
3.5100230000000000e8 -1.0349999999999999e-1 3.1950000000000001e-1
3.5425227500000000e8 -3.5240000000000000e-2 3.3350000000000002e-1
3.5750225000000000e8 3.4920000000000000e-2 3.3010000000000000e-1
3.6075222500000000e8 9.6259999999999998e-2 3.0259999999999998e-1
3.6400220000000000e8 1.5529999999999999e-1 2.7139999999999997e-1
3.6725217500000000e8 2.0979999999999999e-1 2.3510000000000000e-1
3.7050215000000000e8 2.3749999999999999e-1 1.8570000000000000e-1
3.7375212500000000e8 2.7800000000000002e-1 1.2320000000000000e-1
3.7700210000000000e8 2.8020000000000000e-1 7.3469999999999994e-2
3.8025207500000000e8 2.8970000000000001e-1 1.4890000000000000e-2
3.8350205000000000e8 2.7839999999999998e-1 -4.3760000000000000e-2
3.8675202500000000e8 2.6840000000000003e-1 -9.5420000000000005e-2
3.9000200000000000e8 2.2930000000000000e-1 -1.3250000000000001e-1
3.9325197500000000e8 2.0480000000000001e-1 -1.7449999999999999e-1
3.9650195000000000e8 1.5679999999999999e-1 -2.0210000000000000e-1
3.9975192500000000e8 1.0680000000000001e-1 -2.2300000000000000e-1
4.0300190000000000e8 5.4230000000000000e-2 -2.2880000000000000e-1
4.0625187500000000e8 5.1630000000000001e-3 -2.2850000000000001e-1
4.0950185000000000e8 -5.4590000000000000e-2 -2.1980000000000000e-1
4.1275182500000000e8 -9.9860000000000004e-2 -1.9810000000000000e-1
4.1600180000000000e8 -1.3900000000000001e-1 -1.6130000000000000e-1
4.1925177500000000e8 -1.6919999999999999e-1 -1.1820000000000000e-1
4.2250175000000000e8 -1.8980000000000000e-1 -6.7860000000000004e-2
4.2575172500000000e8 -1.9570000000000001e-1 -1.7380000000000000e-2
4.2900170000000000e8 -1.9289999999999999e-1 3.5340000000000003e-2
4.3225167500000000e8 -1.7570000000000000e-1 8.5800000000000001e-2
4.3550165000000000e8 -1.4899999999999999e-1 1.3120000000000001e-1
4.3875162500000000e8 -1.1400000000000000e-1 1.6880000000000001e-1
4.4200160000000000e8 -8.2379999999999995e-2 1.9040000000000001e-1
4.4525157500000000e8 -3.1510000000000003e-2 2.1970000000000001e-1
4.4850155000000000e8 2.8559999999999999e-2 2.1600000000000000e-1
4.5175152500000000e8 7.9969999999999999e-2 2.1520000000000000e-1
4.5500150000000000e8 1.2080000000000000e-1 1.9869999999999999e-1
4.5825147500000000e8 1.7540000000000000e-1 1.8529999999999999e-1
4.6150145000000000e8 2.1260000000000001e-1 1.3430000000000000e-1
4.6475142500000000e8 2.4670000000000000e-1 9.5159999999999995e-2
4.6800140000000000e8 2.6519999999999999e-1 3.9260000000000003e-2
4.7125137500000000e8 2.7779999999999999e-1 -1.1970000000000000e-2
4.7450135000000000e8 2.7029999999999998e-1 -6.7400000000000002e-2
4.7775132500000000e8 2.5150000000000000e-1 -1.2470000000000001e-1
4.8100130000000000e8 2.2600000000000001e-1 -1.7240000000000000e-1
4.8425127500000000e8 1.8590000000000001e-1 -2.1590000000000001e-1
4.8750125000000000e8 1.3089999999999999e-1 -2.5209999999999999e-1
4.9075122500000000e8 7.6170000000000002e-2 -2.6950000000000002e-1
4.9400120000000000e8 1.4659999999999999e-2 -2.7529999999999999e-1
4.9725117500000000e8 -4.1570000000000003e-2 -2.6419999999999999e-1
5.0050115000000000e8 -9.5380000000000006e-2 -2.3970000000000000e-1
5.0375112500000000e8 -1.4740000000000000e-1 -2.1479999999999999e-1
5.0700110000000000e8 -1.8880000000000000e-1 -1.7119999999999999e-1
5.1025107500000000e8 -2.1840000000000001e-1 -1.1860000000000000e-1
5.1350105000000000e8 -2.3590000000000000e-1 -6.0420000000000001e-2
5.1675102500000000e8 -2.3949999999999999e-1 -2.0709999999999999e-3
5.2000100000000000e8 -2.2889999999999999e-1 5.4859999999999999e-2
5.2325097500000000e8 -2.0799999999999999e-1 1.0190000000000000e-1
5.2650095000000000e8 -1.7410000000000000e-1 1.5140000000000001e-1
5.2975092500000000e8 -1.3619999999999999e-1 1.8759999999999999e-1
5.3300090000000000e8 -7.9390000000000002e-2 2.1340000000000001e-1
5.3625087500000000e8 -3.2660000000000002e-2 2.2070000000000001e-1
5.3950085000000000e8 1.3599999999999999e-2 2.3760000000000001e-1
5.4275082500000000e8 6.5659999999999996e-2 2.2270000000000001e-1
5.4600080000000000e8 1.1210000000000001e-1 2.0580000000000001e-1
5.4925077500000000e8 1.6139999999999999e-1 1.7440000000000000e-1
5.5250075000000000e8 1.8729999999999999e-1 1.3850000000000001e-1
5.5575072500000000e8 2.0749999999999999e-1 1.0120000000000000e-1
5.5900070000000000e8 2.1709999999999999e-1 4.9619999999999997e-2
5.6225067500000000e8 2.1870000000000001e-1 1.4980000000000000e-2
5.6550065000000000e8 2.1140000000000000e-1 -3.1770000000000000e-2
5.6875062500000000e8 1.9850000000000001e-1 -6.9010000000000002e-2
5.7200060000000000e8 1.7050000000000001e-1 -9.3710000000000002e-2
5.7525057500000000e8 1.5040000000000001e-1 -1.1640000000000000e-1
5.7850055000000000e8 1.1130000000000000e-1 -1.3990000000000000e-1
5.8175052500000000e8 7.7710000000000001e-2 -1.4390000000000000e-1
5.8500050000000000e8 4.4999999999999998e-2 -1.4130000000000001e-1
5.8825047500000000e8 1.7000000000000001e-2 -1.3070000000000001e-1
5.9150045000000000e8 -6.9329999999999999e-3 -1.1459999999999999e-1
5.9475042500000000e8 -2.4279999999999999e-2 -9.4250000000000000e-2
5.9800040000000000e8 -3.6470000000000002e-2 -7.0410000000000000e-2
6.0125037500000000e8 -4.1570000000000003e-2 -4.8910000000000002e-2
6.0450035000000000e8 -4.0360000000000000e-2 -2.5200000000000000e-2
6.0775032500000000e8 -3.3509999999999998e-2 -5.8750000000000000e-3
6.1100030000000000e8 -2.1770000000000001e-2 9.5999999999999992e-3
6.1425027500000000e8 -8.0280000000000004e-3 2.1010000000000001e-2
6.1750025000000000e8 9.8010000000000007e-3 2.6400000000000000e-2
6.2075022500000000e8 2.6200000000000001e-2 2.7439999999999999e-2
6.2400020000000000e8 4.2000000000000003e-2 2.4049999999999998e-2
6.2725017500000000e8 5.6360000000000000e-2 1.6070000000000001e-2
6.3050015000000000e8 6.8279999999999993e-2 3.8539999999999998e-3
6.3375012500000000e8 7.4740000000000001e-2 -9.5119999999999996e-3
6.3700010000000000e8 7.6410000000000006e-2 -2.6239999999999999e-2
6.4025007500000000e8 7.4749999999999997e-2 -4.2400000000000000e-2
6.4350005000000000e8 6.9070000000000006e-2 -5.9010000000000000e-2
6.4675002500000000e8 5.8709999999999998e-2 -7.2989999999999999e-2
6.5000000000000000e8 4.4900000000000002e-2 -8.4989999999999996e-2
