! Ideal negative-resistance model: -40 ohm || 2 pF, then 2 nH in series
! Generated by scripts/generate_examples.py, demo data, not a measurement
# GHz S RI R 50
0.1 -8.84606889 -0.730027431
0.15 -8.66421719 -1.05271831
0.2 -8.42742731 -1.33044597
0.25 -8.14981667 -1.55641771
0.3 -7.84552735 -1.72845971
0.35 -7.52729674 -1.84819967
0.4 -7.20563155 -1.91994249
0.45 -6.88853396 -1.9495474
0.5 -6.58162353 -1.94349587
0.55 -6.28848171 -1.90822103
0.6 -6.01107863 -1.84968859
0.65 -5.75019106 -1.7731792
0.7 -5.50576434 -1.68321288
0.75 -5.27720142 -1.58356279
0.8 -5.06358063 -1.47731831
0.85 -4.86381184 -1.36696999
0.9 -4.67674355 -1.25449969
0.95 -4.50123301 -1.14146609
1 -4.33618941 -1.02908119
1.05 -4.18059834 -0.918276032
1.1 -4.03353339 -0.809755853
1.15 -3.89415958 -0.704045444
1.2 -3.76173136 -0.601526087
1.25 -3.63558766 -0.502465341
1.3 -3.51514518 -0.407040938
1.35 -3.39989107 -0.315359878
1.4 -3.28937544 -0.227473658
1.45 -3.18320412 -0.143390396
1.5 -3.08103194 -0.0630844876
1.55 -2.98255656 0.0134957016
1.6 -2.8875129 0.086421711
1.65 -2.79566821 0.155780096
1.7 -2.70681767 0.221668526
1.75 -2.62078059 0.284192668
1.8 -2.53739708 0.343463695
1.85 -2.45652509 0.399596296
1.9 -2.37803798 0.45270708
1.95 -2.30182229 0.502913315
2 -2.22777591 0.550331913
2.05 -2.15580647 0.595078633
2.1 -2.08582998 0.63726745
2.15 -2.01776967 0.677010063
2.2 -1.95155494 0.71441552
2.25 -1.88712056 0.749589929
2.3 -1.82440593 0.782636246
2.35 -1.76335445 0.813654128
2.4 -1.70391301 0.842739833
2.45 -1.64603155 0.869986163
2.5 -1.58966266 0.895482442
2.55 -1.53476129 0.919314519
2.6 -1.48128447 0.941564796
2.65 -1.42919109 0.962312274
2.7 -1.37844167 0.981632614
2.75 -1.32899828 0.999598207
2.8 -1.28082431 1.01627826
2.85 -1.23388442 1.03173887
2.9 -1.18814444 1.04604313
2.95 -1.14357123 1.05925125
3 -1.10013268 1.07142059
