! Series RLC demo: R = 25 ohm, L = 10 nH, C = 5 pF
! Generated by scripts/generate_examples.py, demo data, not a measurement
# MHz S MA R 50
100 0.975422756 -18.0962836
125 0.961690422 -22.6881624
150 0.945006746 -27.3254566
175 0.925444283 -32.0175884
200 0.903099133 -36.7743342
225 0.878095071 -41.6060326
250 0.850587554 -46.523866
275 0.820767338 -51.5402305
300 0.788863472 -56.6692046
325 0.755145508 -61.9271247
350 0.719924852 -67.3332663
375 0.683555299 -72.9106157
400 0.646432944 -78.6866873
425 0.608995725 -84.6942933
450 0.571722884 -90.9720832
475 0.535134495 -97.5645343
500 0.499790774 -104.52086
525 0.466290103 -111.892028
550 0.435263349 -119.724815
575 0.407360322 -128.051833
600 0.383222706 -136.877199
625 0.363438147 -146.15967
650 0.348475054 -155.798636
675 0.338608371 -165.631461
700 0.33385934 -175.449423
725 0.333976392 174.968885
750 0.338470947 165.818672
775 0.346696894 157.240465
800 0.357944506 149.310724
825 0.371520498 142.049282
850 0.386800087 135.4352
875 0.403251316 129.423291
900 0.420439256 123.957206
925 0.438018677 118.978135
950 0.455721691 114.429818
975 0.473344351 110.260984
1000 0.49073417 106.426213
1025 0.507779385 102.885917
1050 0.524400096 99.6059021
1075 0.540541133 96.5567512
1100 0.556166404 93.7131827
1125 0.571254447 91.0534444
1150 0.585794959 88.5587753
1175 0.599786074 86.2129398
1200 0.613232259 84.0018339
1225 0.626142664 81.9131541
1250 0.638529846 79.9361218
1275 0.650408777 78.061254
1300 0.661796071 76.2801714
1325 0.672709396 74.5854403
1350 0.683167011 72.970439
1375 0.693187417 71.4292468
1400 0.702789093 69.9565507
1425 0.711990294 68.5475663
1450 0.720808904 67.1979712
1475 0.729262327 65.903848
1500 0.737367415 64.6616363
1525 0.745140412 63.4680911
1550 0.752596928 62.3202469
1575 0.759751919 61.215387
1600 0.766619685 60.1510169
1625 0.773213868 59.124841
1650 0.779547472 58.1347422
1675 0.785632867 57.1787642
1700 0.791481819 56.255096
1725 0.797105501 55.362058
1750 0.802514522 54.4980897
1775 0.807718951 53.6617392
1800 0.812728337 52.8516532
1825 0.817551735 52.066569
1850 0.822197733 51.3053061
1875 0.826674471 50.5667599
1900 0.830989667 49.8498952
1925 0.835150638 49.1537409
1950 0.83916432 48.4773847
1975 0.843037291 47.8199688
2000 0.846775789 47.1806856
