! Series RLC demo: R = 25 ohm, L = 10 nH, C = 5 pF
! Generated by scripts/generate_examples.py, demo data, not a measurement
# Hz S DB R 50
100000000 -0.216142339 -18.0962836
125000000 -0.339294188 -22.6881624
150000000 -0.491301828 -27.3254566
175000000 -0.672994462 -32.0175884
200000000 -0.885291491 -36.7743342
225000000 -1.12916921 -41.6060326
250000000 -1.40561952 -46.523866
275000000 -1.71559869 -51.5402305
300000000 -2.05996307 -56.6692046
325000000 -2.43938713 -61.9271247
350000000 -2.85425668 -67.3332663
375000000 -3.30452692 -72.9106157
400000000 -3.78953038 -78.6866873
425000000 -4.30771512 -84.6942933
450000000 -4.85628848 -90.9720832
475000000 -5.43074107 -97.5645343
500000000 -6.02423531 -104.52086
525000000 -6.62687605 -111.892028
550000000 -7.22495802 -119.724815
575000000 -7.8004255 -128.051833
600000000 -8.33097534 -136.877199
625000000 -8.79138981 -146.15967
650000000 -9.15656611 -155.798636
675000000 -9.40604618 -165.631461
700000000 -9.52872938 -175.449423
725000000 -9.52568463 174.968885
750000000 -9.40957207 165.818672
775000000 -9.20100099 157.240465
800000000 -8.92368597 149.310724
825000000 -8.6003444 142.049282
850000000 -8.25026875 135.4352
875000000 -7.88848414 129.423291
900000000 -7.52593481 123.957206
925000000 -7.17014743 118.978135
950000000 -6.82600599 114.429818
975000000 -6.49645602 110.260984
1e+09 -6.18307401 106.426213
1.025e+09 -5.88649869 102.885917
1.05e+09 -5.60674475 99.6059021
1.075e+09 -5.34342505 96.5567512
1.1e+09 -5.09590498 93.7131827
1.125e+09 -4.86340812 91.0534444
1.15e+09 -4.6450874 88.5587753
1.175e+09 -4.44007244 86.2129398
1.2e+09 -4.24750014 84.0018339
1.225e+09 -4.06653407 81.9131541
1.25e+09 -3.89637596 79.9361218
1.275e+09 -3.73627214 78.061254
1.3e+09 -3.58551631 76.2801714
1.325e+09 -3.44345012 74.5854403
1.35e+09 -3.30946226 72.970439
1.375e+09 -3.18298659 71.4292468
1.4e+09 -3.06349974 69.9565507
1.425e+09 -2.95051853 68.5475663
1.45e+09 -2.84359714 67.1979712
1.475e+09 -2.74232442 65.903848
1.5e+09 -2.64632117 64.6616363
1.525e+09 -2.55523765 63.4680911
1.55e+09 -2.46875117 62.3202469
1.575e+09 -2.38656388 61.215387
1.6e+09 -2.30840067 60.1510169
1.625e+09 -2.2340073 59.124841
1.65e+09 -2.16314865 58.1347422
1.675e+09 -2.09560712 57.1787642
1.7e+09 -2.03118114 56.255096
1.725e+09 -1.96968388 55.362058
1.75e+09 -1.910942 54.4980897
1.775e+09 -1.85479455 53.6617392
1.8e+09 -1.80109196 52.8516532
1.825e+09 -1.74969511 52.066569
1.85e+09 -1.7004745 51.3053061
1.875e+09 -1.65330947 50.5667599
1.9e+09 -1.60808752 49.8498952
1.925e+09 -1.56470365 49.1537409
1.95e+09 -1.5230598 48.4773847
1.975e+09 -1.48306428 47.8199688
2e+09 -1.44463135 47.1806856
