! Series RLC demo: R = 25 ohm, L = 10 nH, C = 5 pF
! Generated by scripts/generate_examples.py, demo data, not a measurement
# GHz S RI R 50
0.1 0.927174328 -0.30298072
0.125 0.887272701 -0.370938838
0.15 0.839556624 -0.433799982
0.175 0.784670682 -0.490651651
0.2 0.723382067 -0.540653706
0.225 0.656576431 -0.583059469
0.25 0.585248781 -0.617238245
0.275 0.510488534 -0.642697813
0.3 0.433458365 -0.659105016
0.325 0.355367108 -0.666302452
0.35 0.277437689 -0.664319292
0.375 0.20087177 -0.653374608
0.4 0.126813327 -0.633872173
0.425 0.0563136895 -0.606386479
0.45 -0.00969941517 -0.571640602
0.475 -0.0704466084 -0.530477335
0.5 -0.125313774 -0.483825667
0.525 -0.17386031 -0.432665059
0.55 -0.215818726 -0.377990027
0.575 -0.251086352 -0.320777299
0.6 -0.279710537 -0.261957359
0.625 -0.30186907 -0.202391579
0.65 -0.317847705 -0.142855521
0.675 -0.328016556 -0.0840283769
0.7 -0.332806911 -0.0264880932
0.725 -0.332689654 0.0292886376
0.75 -0.328156127 0.082922483
0.775 -0.319701896 0.134124695
0.8 -0.307813596 0.182688423
0.825 -0.292958779 0.228478958
0.85 -0.27557854 0.271423609
0.875 -0.256082565 0.311501756
0.9 -0.234846247 0.348735442
0.925 -0.212209458 0.383180776
0.95 -0.18847661 0.414920266
0.975 -0.163917688 0.444056153
1 -0.138769961 0.47070471
1.025 -0.113240144 0.494991489
1.05 -0.0875068089 0.517047405
1.075 -0.0617229254 0.537005584
1.1 -0.0360183974 0.554998868
1.125 -0.0105025346 0.571157894
1.15 0.0147336004 0.585609644
1.175 0.0396150019 0.598476387
1.2 0.0640807052 0.60987496
1.225 0.0880819536 0.619916289
1.25 0.111580547 0.628705134
1.275 0.134547365 0.63633999
1.3 0.15696106 0.642913109
1.325 0.178806898 0.648510621
1.35 0.200075747 0.653212722
1.375 0.220763193 0.657093911
1.4 0.240868764 0.660223256
1.425 0.260395269 0.662664684
1.45 0.279348214 0.664477277
1.475 0.297735313 0.665715574
1.5 0.315566057 0.666429868
1.525 0.33285135 0.666666492
1.55 0.349603204 0.666468106
1.575 0.365834469 0.665873953
1.6 0.381558611 0.664920121
1.625 0.396789529 0.663639779
1.65 0.411541391 0.662063399
1.675 0.425828504 0.66021897
1.7 0.439665204 0.658132189
1.725 0.453065769 0.655826645
1.75 0.466044338 0.653323988
1.775 0.478614856 0.650644084
1.8 0.490791024 0.647805156
1.825 0.502586259 0.644823923
1.85 0.514013668 0.641715717
1.875 0.525086022 0.638494597
1.9 0.535815741 0.635173456
1.925 0.546214882 0.63176411
1.95 0.556295134 0.628277391
1.975 0.566067812 0.624723224
2 0.575543856 0.621110705
