! Two-port demo: S11 = series RLC, S22 = crossing model, S21/S12 placeholders
! Generated by scripts/generate_examples.py, demo data, not a measurement
# GHz S MA R 50
1 0.49073417 106.426213 0.5 -20
      0.5 -20 2 -90
1.05 0.524400096 99.6059021 0.5 -20
      0.5 -20 1.8856192 -92.689485
1.1 0.556166404 93.7131827 0.5 -20
      0.5 -20 1.78026803 -95.6434373
1.15 0.585794959 88.5587753 0.5 -20
      0.5 -20 1.68104028 -98.9228948
1.2 0.613232259 84.0018339 0.5 -20
      0.5 -20 1.58547294 -102.587878
1.25 0.638529846 79.9361218 0.5 -20
      0.5 -20 1.49147236 -106.699244
1.3 0.661796071 76.2801714 0.5 -20
      0.5 -20 1.3972979 -111.320338
1.35 0.683167011 72.970439 0.5 -20
      0.5 -20 1.30160129 -116.518892
1.4 0.702789093 69.9565507 0.5 -20
      0.5 -20 1.20351872 -122.369889
1.45 0.720808904 67.1979712 0.5 -20
      0.5 -20 1.10280639 -128.960343
1.5 0.737367415 64.6616363 0.5 -20
      0.5 -20 1 -136.397181
1.55 0.752596928 62.3202469 0.5 -20
      0.5 -20 0.896568114 -144.818875
1.6 0.766619685 60.1510169 0.5 -20
      0.5 -20 0.795024757 -154.408972
1.65 0.779547472 58.1347422 0.5 -20
      0.5 -20 0.698967093 -165.402016
1.7 0.791481819 56.255096 0.5 -20
      0.5 -20 0.612988007 -178.054692
1.75 0.802514522 54.4980897 0.5 -20
      0.5 -20 0.542326145 167.471192
1.8 0.812728337 52.8516532 0.5 -20
      0.5 -20 0.491951116 151.356975
1.85 0.822197733 51.3053061 0.5 -20
      0.5 -20 0.464867735 134.384472
1.9 0.830989667 49.8498952 0.5 -20
      0.5 -20 0.460388136 117.825381
1.95 0.83916432 48.4773847 0.5 -20
      0.5 -20 0.474118546 102.843883
2 0.846775789 47.1806856 0.5 -20
      0.5 -20 0.5 90
! Noise parameters: frequency restarts, this block must be skipped
1 1.5 0.3 45 0.2
2 1.8 0.2 60 0.3
